(set-info :source |printed by MathSAT|)
(declare-fun call_voiture.flby2 () Bool)
(declare-fun call_voiture.speed.next () Int)
(declare-fun param_m () Bool)
(declare-fun meter.next () Bool)
(declare-fun bump () Bool)
(declare-fun stop () Bool)
(declare-fun call_voiture.ite3 () Int)
(declare-fun call_voiture.flby2.next () Bool)
(declare-fun toofast () Bool)
(declare-fun call_voiture.meter () Bool)
(declare-fun call_voiture.meter.next () Bool)
(declare-fun param_s.next () Bool)
(declare-fun second.next () Bool)
(declare-fun call_voiture.ite.next () Int)
(declare-fun call_voiture.bump () Bool)
(declare-fun stop.next () Bool)
(declare-fun call_voiture.flby4.next () Int)
(declare-fun meter () Bool)
(declare-fun call_voiture.flby6 () Int)
(declare-fun call_excludes2.excludes.next () Bool)
(declare-fun call_voiture.toofast.next () Bool)
(declare-fun dist.next () Int)
(declare-fun time () Int)
(declare-fun call_voiture.ite2 () Int)
(declare-fun call_voiture.flby3 () Bool)
(declare-fun call_Sofar.Sofar.next () Bool)
(declare-fun call_Sofar.flby.next () Bool)
(declare-fun time.next () Int)
(declare-fun env.next () Bool)
(declare-fun call_voiture.flby () Bool)
(declare-fun toofast.next () Bool)
(declare-fun call_voiture.time () Int)
(declare-fun move () Bool)
(declare-fun call_voiture.ite3.next () Int)
(declare-fun dist () Int)
(declare-fun call_voiture.flby.next () Bool)
(declare-fun call_voiture.move () Bool)
(declare-fun move.next () Bool)
(declare-fun call_voiture.toofast () Bool)
(declare-fun bump.next () Bool)
(declare-fun call_voiture.stop.next () Bool)
(declare-fun call_voiture.bump.next () Bool)
(declare-fun call_voiture.move.next () Bool)
(declare-fun param_s () Bool)
(declare-fun call_voiture.second.next () Bool)
(declare-fun call_voiture.flby4 () Int)
(declare-fun call_voiture.second () Bool)
(declare-fun call_voiture.flby6.next () Int)
(declare-fun call_voiture.stop () Bool)
(declare-fun call_voiture.flby5.next () Int)
(declare-fun second () Bool)
(declare-fun call_voiture.dist () Int)
(declare-fun call_Sofar.Sofar () Bool)
(declare-fun _OK_.next () Bool)
(declare-fun _OK_ () Bool)
(declare-fun call_voiture.ite2.next () Int)
(declare-fun env () Bool)
(declare-fun speed () Int)
(declare-fun call_voiture.speed () Int)
(declare-fun call_excludes2.excludes () Bool)
(declare-fun call_Sofar.flby () Bool)
(declare-fun call_voiture.time.next () Int)
(declare-fun param_m.next () Bool)
(declare-fun call_voiture.dist.next () Int)
(declare-fun speed.next () Int)
(declare-fun call_voiture.flby3.next () Bool)
(declare-fun call_voiture.flby5 () Int)
(declare-fun call_voiture.ite4.next () Int)
(define-fun .def_530 () Bool (= call_Sofar.flby.next call_Sofar.Sofar.next))
(define-fun .def_526 () Bool (and param_s.next param_m.next))
(define-fun .def_527 () Bool (not .def_526))
(define-fun .def_528 () Bool (= call_excludes2.excludes.next .def_527))
(define-fun .def_524 () Bool (= call_voiture.meter.next call_voiture.flby.next))
(define-fun .def_522 () Bool (= call_voiture.second.next call_voiture.flby2.next))
(define-fun .def_519 () Bool (= call_voiture.move.next call_voiture.flby3.next))
(define-fun .def_516 () Bool (= call_voiture.ite3.next 0))
(define-fun .def_512 () Bool (not call_voiture.move.next))
(define-fun .def_513 () Bool (or call_voiture.second.next .def_512))
(define-fun .def_515 () Bool (not .def_513))
(define-fun .def_517 () Bool (or .def_515 .def_516))
(define-fun .def_511 () Bool (= call_voiture.ite2.next call_voiture.ite3.next))
(define-fun .def_514 () Bool (or .def_511 .def_513))
(define-fun .def_518 () Bool (and .def_514 .def_517))
(define-fun .def_520 () Bool (and .def_518 .def_519))
(define-fun .def_509 () Bool (= call_voiture.flby6.next call_voiture.time.next))
(define-fun .def_507 () Bool (= call_voiture.flby5.next call_voiture.speed.next))
(define-fun .def_505 () Bool (= call_voiture.flby4.next call_voiture.dist.next))
(define-fun .def_502 () Bool (= call_voiture.dist.next 10))
(define-fun .def_503 () Bool (= call_voiture.bump.next .def_502))
(define-fun .def_499 () Bool (<= 4 call_voiture.time.next))
(define-fun .def_500 () Bool (= call_voiture.stop.next .def_499))
(define-fun .def_496 () Bool (<= 3 call_voiture.speed.next))
(define-fun .def_497 () Bool (= call_voiture.toofast.next .def_496))
(define-fun .def_494 () Bool (= env.next call_Sofar.Sofar.next))
(define-fun .def_491 () Bool (= call_voiture.meter.next meter.next))
(define-fun .def_489 () Bool (= call_voiture.second.next second.next))
(define-fun .def_486 () Bool (= call_voiture.move.next move.next))
(define-fun .def_484 () Bool (= time.next call_voiture.time.next))
(define-fun .def_480 () Bool (= speed.next call_voiture.speed.next))
(define-fun .def_476 () Bool (= dist.next call_voiture.dist.next))
(define-fun .def_473 () Bool (= bump.next call_voiture.bump.next))
(define-fun .def_469 () Bool (= stop.next call_voiture.stop.next))
(define-fun .def_465 () Bool (= toofast.next call_voiture.toofast.next))
(define-fun .def_458 () Bool (and move.next meter.next))
(define-fun .def_459 () Bool (not .def_458))
(define-fun .def_455 () Bool (<= dist.next 9))
(define-fun .def_460 () Bool (or .def_455 .def_459))
(define-fun .def_453 () Bool (not env.next))
(define-fun .def_461 () Bool (or .def_453 .def_460))
(define-fun .def_462 () Bool (= _OK_.next .def_461))
(define-fun .def_466 () Bool (and .def_462 .def_465))
(define-fun .def_470 () Bool (and .def_466 .def_469))
(define-fun .def_474 () Bool (and .def_470 .def_473))
(define-fun .def_477 () Bool (and .def_474 .def_476))
(define-fun .def_481 () Bool (and .def_477 .def_480))
(define-fun .def_485 () Bool (and .def_481 .def_484))
(define-fun .def_487 () Bool (and .def_485 .def_486))
(define-fun .def_490 () Bool (and .def_487 .def_489))
(define-fun .def_492 () Bool (and .def_490 .def_491))
(define-fun .def_495 () Bool (and .def_492 .def_494))
(define-fun .def_498 () Bool (and .def_495 .def_497))
(define-fun .def_501 () Bool (and .def_498 .def_500))
(define-fun .def_504 () Bool (and .def_501 .def_503))
(define-fun .def_506 () Bool (and .def_504 .def_505))
(define-fun .def_508 () Bool (and .def_506 .def_507))
(define-fun .def_510 () Bool (and .def_508 .def_509))
(define-fun .def_521 () Bool (and .def_510 .def_520))
(define-fun .def_523 () Bool (and .def_521 .def_522))
(define-fun .def_525 () Bool (and .def_523 .def_524))
(define-fun .def_529 () Bool (and .def_525 .def_528))
(define-fun .def_531 () Bool (and .def_529 .def_530))
(define-fun .def_370 () Bool (= call_Sofar.Sofar call_Sofar.flby))
(define-fun .def_364 () Bool (and param_s param_m))
(define-fun .def_365 () Bool (not .def_364))
(define-fun .def_367 () Bool (= .def_365 call_excludes2.excludes))
(define-fun .def_360 () Bool (= call_voiture.meter call_voiture.flby))
(define-fun .def_357 () Bool (= call_voiture.second call_voiture.flby2))
(define-fun .def_353 () Bool (= call_voiture.move call_voiture.flby3))
(define-fun .def_349 () Bool (= call_voiture.ite3 0))
(define-fun .def_345 () Bool (not call_voiture.move))
(define-fun .def_346 () Bool (or call_voiture.second .def_345))
(define-fun .def_348 () Bool (not .def_346))
(define-fun .def_350 () Bool (or .def_348 .def_349))
(define-fun .def_344 () Bool (= call_voiture.ite2 call_voiture.ite3))
(define-fun .def_347 () Bool (or .def_344 .def_346))
(define-fun .def_351 () Bool (and .def_347 .def_350))
(define-fun .def_354 () Bool (and .def_351 .def_353))
(define-fun .def_340 () Bool (= call_voiture.time call_voiture.flby6))
(define-fun .def_337 () Bool (= call_voiture.speed call_voiture.flby5))
(define-fun .def_334 () Bool (= call_voiture.dist call_voiture.flby4))
(define-fun .def_330 () Bool (= call_voiture.dist 10))
(define-fun .def_331 () Bool (= call_voiture.bump .def_330))
(define-fun .def_327 () Bool (<= 4 call_voiture.time))
(define-fun .def_328 () Bool (= call_voiture.stop .def_327))
(define-fun .def_324 () Bool (<= 3 call_voiture.speed))
(define-fun .def_325 () Bool (= call_voiture.toofast .def_324))
(define-fun .def_322 () Bool (= env call_Sofar.Sofar))
(define-fun .def_319 () Bool (= meter call_voiture.meter))
(define-fun .def_316 () Bool (= second call_voiture.second))
(define-fun .def_312 () Bool (= move call_voiture.move))
(define-fun .def_309 () Bool (= time call_voiture.time))
(define-fun .def_305 () Bool (= speed call_voiture.speed))
(define-fun .def_301 () Bool (= dist call_voiture.dist))
(define-fun .def_298 () Bool (= bump call_voiture.bump))
(define-fun .def_294 () Bool (= stop call_voiture.stop))
(define-fun .def_290 () Bool (= toofast call_voiture.toofast))
(define-fun .def_283 () Bool (and move meter))
(define-fun .def_284 () Bool (not .def_283))
(define-fun .def_280 () Bool (<= dist 9))
(define-fun .def_285 () Bool (or .def_280 .def_284))
(define-fun .def_278 () Bool (not env))
(define-fun .def_286 () Bool (or .def_278 .def_285))
(define-fun .def_287 () Bool (= _OK_ .def_286))
(define-fun .def_291 () Bool (and .def_287 .def_290))
(define-fun .def_295 () Bool (and .def_291 .def_294))
(define-fun .def_299 () Bool (and .def_295 .def_298))
(define-fun .def_302 () Bool (and .def_299 .def_301))
(define-fun .def_306 () Bool (and .def_302 .def_305))
(define-fun .def_310 () Bool (and .def_306 .def_309))
(define-fun .def_313 () Bool (and .def_310 .def_312))
(define-fun .def_317 () Bool (and .def_313 .def_316))
(define-fun .def_320 () Bool (and .def_317 .def_319))
(define-fun .def_323 () Bool (and .def_320 .def_322))
(define-fun .def_326 () Bool (and .def_323 .def_325))
(define-fun .def_329 () Bool (and .def_326 .def_328))
(define-fun .def_332 () Bool (and .def_329 .def_331))
(define-fun .def_335 () Bool (and .def_332 .def_334))
(define-fun .def_338 () Bool (and .def_335 .def_337))
(define-fun .def_341 () Bool (and .def_338 .def_340))
(define-fun .def_355 () Bool (and .def_341 .def_354))
(define-fun .def_358 () Bool (and .def_355 .def_357))
(define-fun .def_361 () Bool (and .def_358 .def_360))
(define-fun .def_368 () Bool (and .def_361 .def_367))
(define-fun .def_371 () Bool (and .def_368 .def_370))
(define-fun .def_532 () Bool (and .def_371 .def_531))
(define-fun .def_447 () Bool (and call_Sofar.Sofar call_excludes2.excludes.next))
(define-fun .def_449 () Bool (= .def_447 call_Sofar.flby.next))
(define-fun .def_444 () Bool (= call_voiture.ite4.next call_voiture.flby6.next))
(define-fun .def_441 () Bool (= call_voiture.flby5.next call_voiture.ite3.next))
(define-fun .def_437 () Bool (= call_voiture.ite.next call_voiture.flby4.next))
(define-fun .def_431 () Bool (not call_voiture.bump))
(define-fun .def_429 () Bool (not call_voiture.toofast))
(define-fun .def_427 () Bool (not call_voiture.stop))
(define-fun .def_428 () Bool (and call_voiture.move .def_427))
(define-fun .def_430 () Bool (and .def_428 .def_429))
(define-fun .def_432 () Bool (and .def_430 .def_431))
(define-fun .def_434 () Bool (= .def_432 call_voiture.flby3.next))
(define-fun .def_425 () Bool (= param_s.next call_voiture.flby2.next))
(define-fun .def_418 () Bool (not param_s.next))
(define-fun .def_420 () Bool (and .def_418 param_m.next))
(define-fun .def_422 () Bool (= .def_420 call_voiture.flby.next))
(define-fun .def_413 () Bool (not call_voiture.second.next))
(define-fun .def_410 () Int (* (- 1) call_voiture.ite4.next))
(define-fun .def_411 () Int (+ call_voiture.time .def_410))
(define-fun .def_412 () Bool (= .def_411 (- 2)))
(define-fun .def_414 () Bool (or .def_412 .def_413))
(define-fun .def_407 () Bool (= call_voiture.time call_voiture.ite4.next))
(define-fun .def_409 () Bool (or .def_407 call_voiture.second.next))
(define-fun .def_415 () Bool (and .def_409 .def_414))
(define-fun .def_400 () Int (* (- 1) call_voiture.ite.next))
(define-fun .def_401 () Int (+ call_voiture.dist .def_400))
(define-fun .def_402 () Bool (= .def_401 (- 1)))
(define-fun .def_389 () Bool (and call_voiture.move.next call_voiture.meter.next))
(define-fun .def_394 () Bool (not .def_389))
(define-fun .def_403 () Bool (or .def_394 .def_402))
(define-fun .def_398 () Bool (= call_voiture.dist call_voiture.ite.next))
(define-fun .def_399 () Bool (or .def_389 .def_398))
(define-fun .def_404 () Bool (and .def_399 .def_403))
(define-fun .def_391 () Int (* (- 1) call_voiture.ite2.next))
(define-fun .def_392 () Int (+ call_voiture.speed .def_391))
(define-fun .def_393 () Bool (= .def_392 1))
(define-fun .def_395 () Bool (or .def_393 .def_394))
(define-fun .def_386 () Bool (= call_voiture.speed call_voiture.ite2.next))
(define-fun .def_390 () Bool (or .def_386 .def_389))
(define-fun .def_396 () Bool (and .def_390 .def_395))
(define-fun .def_405 () Bool (and .def_396 .def_404))
(define-fun .def_416 () Bool (and .def_405 .def_415))
(define-fun .def_423 () Bool (and .def_416 .def_422))
(define-fun .def_426 () Bool (and .def_423 .def_425))
(define-fun .def_435 () Bool (and .def_426 .def_434))
(define-fun .def_438 () Bool (and .def_435 .def_437))
(define-fun .def_442 () Bool (and .def_438 .def_441))
(define-fun .def_445 () Bool (and .def_442 .def_444))
(define-fun .def_450 () Bool (and .def_445 .def_449))
(define-fun .def_533 () Bool (and .def_450 .def_532))
(assert .def_533)
